
Gurobi 12.0.3 (linux64) logging started Fri Mar 27 20:18:47 2026

Set parameter LogFile to value "/home/solar-wind/WT_Solar_results_bigM100000_thread4/case24_ieee_rts_theta0.15_epsilon0.1_gurobi_seed20000_num_gen38_N_WDR300_load_scaling_factor1_EIFICA_T24_num_Solar5_num_WT10.txt"
Gurobi Optimizer version 12.0.3 build v12.0.3rc0 (linux64 - "Ubuntu 22.04.5 LTS")

CPU model: Intel(R) Xeon(R) Platinum 8378A CPU @ 3.00GHz, instruction set [SSE2|AVX|AVX2|AVX512]
Thread count: 32 physical cores, 64 logical processors, using up to 4 threads

Non-default parameters:
TimeLimit  14400
MIPGap  0.001
Seed  20000
Threads  4

Academic license 2721591 - for non-commercial use only - registered to fa___@mails.neu.edu.cn
Optimize a model with 878228 rows, 2125 columns and 75515848 nonzeros
Model fingerprint: 0x0fd7d2f4
Model has 912 quadratic objective terms
Coefficient statistics:
  Matrix range     [3e-07, 6e+01]
  Objective range  [3e+01, 6e+01]
  QObjective range [4e-03, 2e-02]
  Bounds range     [0e+00, 0e+00]
  RHS range        [7e-02, 1e+03]
Presolve removed 600871 rows and 0 columns (presolve time = 6s)...
Presolve removed 601745 rows and 0 columns
Presolve time: 8.11s
Presolved: 276483 rows, 2999 columns, 5988940 nonzeros
Presolved model has 912 quadratic objective terms
Elapsed ordering time = 8s
Elapsed ordering time = 27s
Ordering time: 59.01s
Elapsed ordering time = 59s
Elapsed ordering time = 61s
Elapsed ordering time = 65s
Elapsed ordering time = 71s
Elapsed ordering time = 75s
Elapsed ordering time = 84s
Elapsed ordering time = 87s
Elapsed ordering time = 90s
Elapsed ordering time = 97s
Elapsed ordering time = 100s
Elapsed ordering time = 110s
Elapsed ordering time = 110s
Elapsed ordering time = 115s
Elapsed ordering time = 123s
Elapsed ordering time = 126s
Elapsed ordering time = 130s
Ordering time: 135.95s

Barrier statistics:
 Dense cols : 1161
 AA' NZ     : 4.452e+08
 Factor NZ  : 2.578e+09 (roughly 20.0 GB of memory)
 Factor Ops : 8.999e+13 (roughly 500 seconds per iteration)
 Threads    : 4

                  Objective                Residual
Iter       Primal          Dual         Primal    Dual     Compl     Time
   0   5.85180931e+08 -3.07177388e+08  3.76e+04 9.92e+02  9.91e+05   316s
   1   5.49709667e+08 -2.79356509e+08  3.61e+04 9.52e+02  9.51e+05   316s
   2   5.44582945e+08 -3.44582375e+08  3.58e+04 9.45e+02  9.47e+05   317s
   3   5.06476911e+08 -3.40761028e+08  3.41e+04 9.00e+02  9.02e+05   318s
   4   4.71931934e+08 -4.83150039e+08  3.25e+04 8.56e+02  8.74e+05   318s
   5   4.19785142e+08 -6.25338882e+08  3.01e+04 7.88e+02  8.50e+05   319s
   6   3.80612144e+08 -6.74618879e+08  2.81e+04 7.35e+02  8.11e+05   319s
   7   3.32079189e+08 -7.00998077e+08  2.56e+04 6.66e+02  7.37e+05   319s
   8   2.98305249e+08 -7.29285220e+08  2.37e+04 6.16e+02  6.82e+05   320s
   9   2.63802150e+08 -7.59269399e+08  2.17e+04 5.62e+02  6.24e+05   320s
  10   2.33415685e+08 -7.86050482e+08  1.98e+04 5.13e+02  5.70e+05   320s
  11   2.09142737e+08 -8.12605637e+08  1.83e+04 4.72e+02  5.25e+05   320s
  12   1.91858950e+08 -8.38953313e+08  1.72e+04 4.41e+02  4.91e+05   321s
  13   1.69489556e+08 -8.68210637e+08  1.56e+04 3.99e+02  4.46e+05   321s
  14   1.52324259e+08 -8.95323485e+08  1.44e+04 3.66e+02  4.10e+05   321s
  15   1.36527075e+08 -9.21458710e+08  1.32e+04 3.35e+02  3.75e+05   321s
  16   1.23140013e+08 -9.46464826e+08  1.22e+04 3.07e+02  3.45e+05   322s
  17   1.08217963e+08 -9.72310959e+08  1.10e+04 2.76e+02  3.11e+05   322s
  18   9.60619544e+07 -1.00118895e+09  9.98e+03 2.50e+02  2.82e+05   322s
  19   8.33304796e+07 -1.02702577e+09  8.82e+03 2.21e+02  2.50e+05   322s
  20   7.25527576e+07 -1.05600743e+09  7.92e+03 1.96e+02  2.23e+05   322s
  21   6.33709582e+07 -1.08108936e+09  7.11e+03 1.74e+02  1.98e+05   323s
  22   5.44200410e+07 -1.10539456e+09  6.28e+03 1.52e+02  1.74e+05   323s
  23   4.69506781e+07 -1.12498748e+09  5.76e+03 1.33e+02  1.53e+05   323s
  24   3.91927172e+07 -1.14396877e+09  5.46e+03 1.13e+02  1.30e+05   323s
  25   3.37171938e+07 -1.15465196e+09  5.04e+03 9.86e+01  1.13e+05   324s
  26   2.72978836e+07 -1.16251346e+09  4.75e+03 8.08e+01  9.37e+04   324s
  27   9.56749820e+06 -1.15795414e+09  9.95e+03 2.81e+01  5.02e+04   324s
  28   7.17609054e+06 -1.07053412e+09  5.95e+03 2.07e+01  3.75e+04   324s
  29   6.10441339e+06 -1.02455895e+09  5.65e+03 1.73e+01  3.16e+04   324s
  30   5.24195096e+06 -9.77033909e+08  5.15e+03 1.46e+01  2.68e+04   325s
  31   4.28571907e+06 -9.12506072e+08  4.31e+03 1.17e+01  2.15e+04   325s
  32   3.38428319e+06 -8.34172525e+08  3.17e+03 8.89e+00  1.66e+04   325s
  33   2.61986505e+06 -7.49891202e+08  2.31e+03 6.55e+00  1.24e+04   325s
  34   2.16852128e+06 -6.87397257e+08  1.93e+03 5.15e+00  9.87e+03   325s
  35   1.66796851e+06 -7.05453408e+08  7.73e+02 3.53e+00  8.09e+03   326s
  36   1.42975199e+06 -6.34400439e+08  5.82e+02 2.76e+00  6.40e+03   326s
  37   1.18509130e+06 -5.85340711e+08  3.54e+02 1.92e+00  4.86e+03   326s
  38   9.96054497e+05 -5.08191102e+08  2.13e+02 1.22e+00  3.43e+03   327s
  39   9.18609297e+05 -4.54044931e+08  1.60e+02 9.20e-01  2.75e+03   327s
  40   8.16397833e+05 -3.60478934e+08  9.17e+01 5.21e-01  1.83e+03   328s
  41   7.94059508e+05 -3.39968694e+08  7.45e+01 4.21e-01  1.64e+03   328s
  42   7.67136795e+05 -2.71942087e+08  5.20e+01 2.92e-01  1.22e+03   329s
  43   7.54269804e+05 -2.40433978e+08  4.08e+01 2.30e-01  1.04e+03   330s
  44   7.46526900e+05 -2.10653865e+08  3.23e+01 1.82e-01  8.83e+02   331s
  45   7.40733985e+05 -1.84013571e+08  2.50e+01 1.41e-01  7.50e+02   332s
  46   7.38602121e+05 -1.68594737e+08  2.11e+01 1.19e-01  6.77e+02   333s
  47   7.37912036e+05 -1.59389443e+08  1.90e+01 1.07e-01  6.36e+02   335s
  48   7.37500226e+05 -1.22465336e+08  1.33e+01 7.49e-02  4.80e+02   337s
  49   7.37372712e+05 -1.00227624e+08  1.00e+01 5.63e-02  3.91e+02   339s
  50   7.38279700e+05 -8.26085460e+07  7.30e+00 4.14e-02  3.16e+02   342s
  51   7.38629515e+05 -5.89168332e+07  4.66e+00 2.65e-02  2.22e+02   344s
  52   7.37369600e+05 -4.24032210e+07  1.23e+00 6.86e-03  1.56e+02   347s
  53   7.36828270e+05 -1.84750994e+07  3.86e-01 1.32e-03  6.87e+01   356s
  54   7.34011451e+05 -2.90167196e+06  1.60e-01 1.31e-04  1.30e+01   371s
  55   7.19290275e+05 -1.24047147e+05  3.39e-02 1.91e-05  3.01e+00   402s
  56   6.75170801e+05  4.44308281e+05  6.69e-03 3.88e-06  8.24e-01   600s
  57   6.54168014e+05  5.73220141e+05  1.58e-03 1.03e-06  2.89e-01  1665s
  58   6.44450201e+05  6.06380894e+05  2.20e-04 1.43e-07  1.36e-01  1995s
  59   6.41377319e+05  6.21848636e+05  7.14e-05 4.66e-08  6.97e-02  2325s
  60   6.39753495e+05  6.29876373e+05  2.34e-05 1.53e-08  3.52e-02  2657s
  61   6.38741064e+05  6.34845063e+05  2.88e-06 1.88e-09  1.39e-02  2993s
  62   6.38504099e+05  6.35966630e+05  1.43e-06 9.35e-10  9.05e-03  3325s
  63   6.38239500e+05  6.37237438e+05  2.34e-07 1.52e-10  3.57e-03  3663s
  64   6.38167864e+05  6.37574028e+05  1.15e-09 1.39e-11  2.12e-03  4000s
  65   6.38090487e+05  6.37949811e+05  1.28e-10 3.43e-11  5.02e-04  4338s
  66   6.38076044e+05  6.38017633e+05  3.88e-09 3.01e-12  2.08e-04  4670s
  67   6.38067101e+05  6.38060316e+05  1.64e-09 1.69e-11  2.42e-05  5003s
  68   6.38065933e+05  6.38065887e+05  5.50e-09 3.47e-12  1.63e-07  5423s
  69   6.38065928e+05  6.38065913e+05  1.60e-06 5.03e-09  5.45e-08  6876s
  70   6.38065927e+05  6.38065918e+05  9.72e-07 3.59e-09  3.25e-08  8356s
  71   6.38065926e+05  6.38065921e+05  9.06e-07 1.22e-08  1.62e-08  9811s
  72   6.38065925e+05  6.38065924e+05  1.24e-06 4.34e-09  4.37e-09  11253s

Barrier solved model in 72 iterations and 11253.16 seconds (7491.53 work units)
Optimal objective 6.38065925e+05

